benchmarks_vrp/CMT11/tsp_classic/CMT11_5.vrp
NAME: CMT11_5
TYPE: CVRP
COMMENT: 1042.11 - Cluster Nr.5
DIMENSION: 16
CAPACITY: 200
EDGE_WEIGHT_TYPE: EUC_2D
NODE_COORD_TYPE: TWOD_COORDS
NODE_COORD_SECTION: 
4 10 45
12 86 44
5 94 48
15 99 50
3 92 52
9 99 46
7 96 42
1 86 41
14 89 46
2 85 55
10 94 42
6 89 52
11 94 44
8 89 43
13 92 42
16 86 46
DEPOT_SECTION: 
4
-1
DEMAND_SECTION: 
9 4
15 21
2 17
3 9
10 11
16 12
1 18
13 10
11 7
8 20
5 13
14 14
4 0
6 16
12 14
7 5
EOF
