benchmarks_vrp/CMT11/tsp_classic/CMT11_5.tour
NAME: CMT11_5 solution
TYPE: TOUR
TOUR_SECTION:
4 1 12 16 14 8 13 11 10 7 9 15 5 3 6 2 -1
-1
EOF